set N :=
1
2
3
4
5
6
7
8
9
10
11
12
13
14
15;

set O :=
1
5
7;

set T :=
2
3
4
6
8
9
10
11
12;

set D :=
13
14
15;

param c :=
1	2	14
1	3	3
2	3	7
1	4	11
2	4	16
3	4	5
1	6	19
2	6	15
3	6	18
4	6	4
5	6	7
2	8	5
3	8	4
4	8	12
5	8	14
6	8	17
7	8	20
1	9	1
2	9	20
3	9	12
4	9	14
5	9	3
6	9	2
7	9	12
8	9	15
1	10	15
2	10	8
3	10	19
4	10	14
5	10	15
6	10	1
7	10	8
8	10	12
9	10	20
1	11	3
2	11	2
3	11	11
4	11	17
5	11	20
6	11	17
7	11	20
8	11	6
9	11	14
10	11	9
1	12	16
2	12	17
3	12	14
4	12	10
5	12	16
6	12	17
7	12	6
8	12	12
9	12	18
10	12	6
11	12	10
1	13	10
4	13	17
5	13	9
6	13	12
7	13	3
8	13	12
9	13	6
10	13	10
11	13	8
12	13	13
2	14	19
3	14	2
4	14	10
5	14	7
6	14	17
7	14	9
8	14	1
9	14	19
10	14	18
11	14	18
12	14	2
1	15	6
2	15	18
3	15	12
4	15	11
5	15	10
6	15	11
7	15	2
8	15	4
9	15	20
10	15	9
11	15	18
12	15	13;